46
75
52	20
51	27
50	24
49	24
48	22
47	19
46	23
45	20
44	21
43	30
42	19
41	23
40	22
39	23
38	20
37	14
36	28
35	27
34	20
33	19
32	14
31	15
30	25
29	22
28	18
27	26
26	18
25	25
24	17
23	20
22	18
21	24
20	25
19	22
18	23
17	25
16	27
15	29
14	17
13	23
12	20
11	17
10	31
9	19
8	18
7	17
